20
1 0 17
2 0 11
2 1 16
3 0 7
3 1 13
3 2 20
4 0 19
4 1 16
4 2 7
4 3 7
5 0 6
5 1 2
5 2 8
5 3 4
5 4 17
6 0 18
6 1 16
6 2 15
6 3 11
6 4 1
6 5 6
7 0 2
7 1 7
7 2 20
7 3 9
7 4 20
7 5 18
7 6 5
8 0 9
8 1 6
8 2 9
8 3 19
8 4 16
8 5 7
8 6 18
8 7 11
9 0 10
9 1 17
9 2 15
9 3 20
9 4 5
9 5 2
9 6 8
9 7 6
9 8 13
10 0 9
10 1 8
10 2 9
10 3 6
10 4 16
10 5 10
10 6 3
10 7 15
10 8 18
10 9 1
11 0 11
11 1 14
11 2 9
11 3 4
11 4 4
11 5 4
11 6 13
11 7 16
11 8 20
11 9 2
11 10 14
12 0 8
12 1 1
12 2 18
12 3 8
12 4 10
12 5 20
12 6 20
12 7 5
12 8 6
12 9 11
12 10 9
12 11 1
13 0 4
13 1 9
13 2 10
13 3 7
13 4 1
13 5 2
13 6 5
13 7 1
13 8 12
13 9 17
13 10 4
13 11 6
13 12 18
14 0 19
14 1 5
14 2 20
14 3 14
14 4 13
14 5 8
14 6 20
14 7 17
14 8 19
14 9 10
14 10 10
14 11 11
14 12 20
14 13 6
15 0 15
15 1 12
15 2 1
15 3 17
15 4 16
15 5 9
15 6 16
15 7 1
15 8 18
15 9 15
15 10 13
15 11 9
15 12 18
15 13 14
15 14 12
16 0 6
16 1 18
16 2 13
16 3 10
16 4 12
16 5 1
16 6 1
16 7 10
16 8 17
16 9 18
16 10 10
16 11 5
16 12 2
16 13 12
16 14 3
16 15 20
17 0 15
17 1 6
17 2 17
17 3 2
17 4 11
17 5 20
17 6 18
17 7 14
17 8 7
17 9 5
17 10 9
17 11 12
17 12 4
17 13 8
17 14 4
17 15 1
17 16 4
18 0 7
18 1 15
18 2 11
18 3 12
18 4 5
18 5 15
18 6 3
18 7 10
18 8 10
18 9 9
18 10 12
18 11 12
18 12 15
18 13 3
18 14 8
18 15 10
18 16 14
18 17 12
19 0 4
19 1 15
19 2 15
19 3 15
19 4 19
19 5 9
19 6 19
19 7 3
19 8 13
19 9 8
19 10 6
19 11 4
19 12 9
19 13 13
19 14 5
19 15 16
19 16 18
19 17 6
19 18 20
